nN = 3;
nR = 10;
nH = 1;

a = [[14, 9, 18, 17, 20, 24, 6, 25, 20, 20], [23, 20, 17, 24, 8, 7, 10, 14, 10, 15], [19, 12, 9, 9, 12, 22, 8, 22, 11, 13]];
c = [[[0, 0, 0, 0, 0, 0, 0, 0, 0, 0], [40, 43, 36, 40, 34, 30, 42, 34, 37, 41], [46, 38, 32, 31, 32, 45, 42, 35, 47, 42]], [[0, 0, 0, 0, 0, 0, 0, 0, 0, 0], [0, 0, 0, 0, 0, 0, 0, 0, 0, 0], [30, 44, 47, 39, 32, 35, 37, 41, 43, 45]], [[0, 0, 0, 0, 0, 0, 0, 0, 0, 0], [0, 0, 0, 0, 0, 0, 0, 0, 0, 0], [0, 0, 0, 0, 0, 0, 0, 0, 0, 0]]];
Q = [[46], [42], [47]];

q = [[[15], [17], [14], [25], [13], [24], [22], [10], [17], [14]], [[7], [23], [17], [10], [19], [22], [12], [10], [21], [13]], [[25], [18], [24], [14], [14], [5], [20], [17], [22], [16]]];
p = [0.31, 0.68, 0.2, 0.77, 0.23, 0.75, 0.11, 0.52, 0.5, 0.95];

t = [1, 1, 0, 1, 0, 2, 1, 2, 0, 0];

